3095.90 0
0 70 79 56 38 36 0
0 54 59 27 21 12 11 93 95 91 0
0 19 17 99 97 3 8 0
0 14 22 7 4 92 96 88 94 98 0
0 64 65 66 57 76 80 0
0 100 6 5 23 20 24 43 48 47 34 42 37 0
0 61 55 62 35 45 53 25 0
0 15 16 13 85 81 82 83 50 29 0
0 68 44 67 41 39 28 30 58 32 49 73 74 75 18 0
0 52 51 78 77 69 71 72 90 0
0 26 89 10 1 2 9 86 84 87 60 40 33 31 46 63 0